Set parameter Username
Academic license - for non-commercial use only - expires 2024-12-10
Set parameter LazyConstraints to value 1
Set parameter TimeLimit to value 600
Gurobi Optimizer version 10.0.0 build v10.0.0rc2 (linux64)

CPU model: Intel(R) Core(TM) i5-4590 CPU @ 3.30GHz, instruction set [SSE2|AVX|AVX2]
Thread count: 4 physical cores, 4 logical processors, using up to 4 threads

Optimize a model with 50005 rows, 12500 columns and 50274 nonzeros
Model fingerprint: 0xf465c1e4
Variable types: 0 continuous, 12500 integer (12500 binary)
Coefficient statistics:
  Matrix range     [1e+00, 1e+00]
  Objective range  [1e+00, 1e+01]
  Bounds range     [1e+00, 1e+00]
  RHS range        [1e+00, 1e+00]
Presolve removed 50000 rows and 0 columns
Presolve time: 0.01s
Presolved: 5 rows, 12500 columns, 274 nonzeros
Variable types: 0 continuous, 12500 integer (12500 binary)

Root relaxation: objective 5.000000e+00, 5 iterations, 0.00 seconds (0.00 work units)

    Nodes    |    Current Node    |     Objective Bounds      |     Work
 Expl Unexpl |  Obj  Depth IntInf | Incumbent    BestBd   Gap | It/Node Time

     0     0    5.00000    0    -          -    5.00000      -     -    2s
     0     0    5.00000    0    -          -    5.00000      -     -    2s
     0     0    5.00000    0    -          -    5.00000      -     -    2s
     0     0    5.00000    0    -          -    5.00000      -     -    3s
     0     0    5.00000    0    -          -    5.00000      -     -    3s
     0     0    5.00000    0    -          -    5.00000      -     -    4s
     0     0    5.00000    0    -          -    5.00000      -     -    4s
     0     0    5.00000    0    -          -    5.00000      -     -    5s
     0     0    5.00000    0    -          -    5.00000      -     -    5s
     0     0    5.00000    0    -          -    5.00000      -     -    5s
     0     0    5.00000    0    -          -    5.00000      -     -    6s
     0     0    5.50000    0    3          -    5.50000      -     -    6s
H    0     0                      57.0000000    6.16667  89.2%     -   12s
     0     0    6.16667    0    7   57.00000    6.16667  89.2%     -   12s
H    0     0                      47.0000000    6.16667  86.9%     -   12s
     0     0    6.16667    0    7   47.00000    6.16667  86.9%     -   17s
     0     0    6.16667    0    7   47.00000    6.16667  86.9%     -   23s
H    0     2                      44.0000000    6.16667  86.0%     -   26s
     0     2    7.00000    0    4   44.00000    7.00000  84.1%     -   26s
H    6     9                      41.0000000    7.00000  82.9%   2.7   28s
    23    27    7.50000    7    3   41.00000    7.33333  82.1%   2.4   31s
    38    35    8.00000    8    -   41.00000    7.33333  82.1%   2.4   35s
    58    43    9.00000    8    -   41.00000    7.50000  81.7%   3.6   40s
H   82    58                      38.0000000    7.50000  80.3%   3.6   48s
H   83    59                      34.0000000    7.50000  77.9%   3.6   48s
   106    70   10.00000    9    -   34.00000    7.50000  77.9%   3.7   55s
H  126    81                      31.0000000    7.50000  75.8%   3.9   62s
   158    89   10.00000   12    -   31.00000    8.00000  74.2%   3.7   71s
   218   131    9.20000   14    9   31.00000    8.00000  74.2%   3.8   87s
H  225   134                      30.0000000    8.00000  73.3%   3.7   89s
H  227   136                      25.0000000    8.00000  68.0%   3.7   90s
H  254   151                      22.0000000    8.00000  63.6%   3.8   99s
H  276   160                      16.0000000    8.00000  50.0%   3.9  103s
   283   163    9.00000    8    -   16.00000    8.00000  50.0%   3.8  105s
   342   188    9.00000    8    7   16.00000    8.00000  50.0%   4.0  120s
   401   218    9.50000   11    3   16.00000    8.00000  50.0%   4.1  136s
   458   248   10.00000   13    -   16.00000    8.33333  47.9%   4.2  153s
   501   271   10.00000   13   11   16.00000    8.50000  46.9%   4.2  165s
   559   308   11.00000   19    -   16.00000    8.50000  46.9%   4.2  181s
   616   337   10.33333   14    4   16.00000    8.66667  45.8%   4.2  197s
   651   364   10.00000    9    4   16.00000    8.83333  44.8%   4.3  206s
   703   382   10.00000   12    -   16.00000    8.86667  44.6%   4.3  219s
   751   406   10.00000   14    6   16.00000    9.00000  43.8%   4.3  234s
   800   456   10.00000   13    -   16.00000    9.00000  43.8%   4.4  248s
H  816   461                      13.0000000    9.00000  30.8%   4.4  251s
  1011   579    9.00000   15    7   13.00000    9.00000  30.8%   4.5  300s
  1052   598   10.50000    9    7   13.00000    9.00000  30.8%   4.5  311s
  1189   658   11.00000   11    -   13.00000    9.00000  30.8%   4.6  343s
  1228   679   10.25000   13    5   13.00000    9.00000  30.8%   4.7  353s
  1239   685   10.20000   13    6   13.00000    9.00000  30.8%   4.7  356s
  1278   703    9.44444    5   10   13.00000    9.00000  30.8%   4.7  370s
  1344   757    9.50000   10   19   13.00000    9.00000  30.8%   4.7  385s
  1380   774   10.50000    8   12   13.00000    9.00000  30.8%   4.9  394s
  1528   908   10.50000    9    7   13.00000    9.00000  30.8%   4.9  429s
  1561   920   10.16667   14    7   13.00000    9.00000  30.8%   4.9  437s
  1720   998   10.00000   18    -   13.00000    9.00000  30.8%   4.9  476s
  1752  1012    9.20000   16    6   13.00000    9.00000  30.8%   4.9  485s
  1882  1105    9.33333   18    4   13.00000    9.00000  30.8%   4.9  514s
  1912  1118   10.00000   17    -   13.00000    9.00000  30.8%   4.9  524s
  2053  1188    9.76667   12   15   13.00000    9.00000  30.8%   5.0  559s
  2103  1252   10.06250   14   14   13.00000    9.00000  30.8%   4.9  572s
  2131  1260   11.00000   15    -   13.00000    9.00000  30.8%   4.9  580s

Cutting planes:
  User: 2
  Lazy constraints: 518

Explored 2251 nodes (11256 simplex iterations) in 610.40 seconds (2.28 work units)
Thread count was 4 (of 4 available processors)

Solution count 10: 13 16 22 ... 44

Time limit reached
Best objective 1.300000000000e+01, best bound 9.000000000000e+00, gap 30.7692%

User-callback calls 5747, time in user-callback 606.13 sec
